NAME : instances/clustered-mixed-tsp/instance-93.tsp
COMMENT : No Comment
TYPE : TSP
DIMENSION: 42
EDGE_WEIGHT_TYPE : EUC_2D
NODE_COORD_SECTION
1 917 2581 
2 1039 2649 
3 1930 4614 
4 4995 2273 
5 1669 4943 
6 1658 5035 
7 417 4060 
8 2028 2204 
9 736 3394 
10 1900 3587 
11 1534 3224 
12 1709 2997 
13 2421 3584 
14 2305 3569 
15 1631 3258 
16 1666 4482 
17 1417 1535 
18 905 3283 
19 3407 1871 
20 1700 1320 
21 2819 1825 
22 4838 2463 
23 1740 3289 
24 1029 4557 
25 1149 4448 
26 412 3604 
27 1575 3243 
28 1854 1828 
29 1522 2644 
30 615 3938 
31 431 4012 
32 1570 5136 
33 3316 1068 
34 1622 2262 
35 4593 2378 
36 517 3501 
37 1059 4382 
38 899 2440 
39 1695 3670 
40 1945 4718 
41 1939 3245 
42 2007 1177 
EOF
